Route 1: 2 5 45 98 12 14 47 15 11 16 59 75 73 8 7 79 78 97 20 48 89 74 13 17 24 77 58 25
Route 2: 65 52 33 23 19 83 82 88 99 87 86 9 53 6 3 46 1 10 60 55 68 4 70 100
Route 3: 95 31 29 28 27 62 63 30 67 76 18 21 51 84 49 22 57 85 26 32 50 34 37 35 96 80
Route 4: 92 36 42 39 69 64 72 44 38 40 61 71 41 81 90 43 54 91 56 66 94 93
Vehicles: 4
Distance: 2053.84
